(set-logic HORN)
(declare-datatypes ((Nat_1 0)) (((Z_1 ) (S_1 (unS_0 Nat_1)))))
(declare-fun diseqNat_0 (Nat_1 Nat_1) Bool)
(declare-fun unS_1 (Nat_1 Nat_1) Bool)
(declare-fun isZ_0 (Nat_1) Bool)
(declare-fun isS_0 (Nat_1) Bool)
(assert (forall ((x_13 Nat_1) (x_12 Nat_1))
	(=> (= x_13 (S_1 x_12))
	    (unS_1 x_12 x_13))))
(assert (isZ_0 Z_1))
(assert (forall ((x_14 Nat_1))
	(isS_0 (S_1 x_14))))
(assert (forall ((x_15 Nat_1))
	(diseqNat_0 Z_1 (S_1 x_15))))
(assert (forall ((x_16 Nat_1))
	(diseqNat_0 (S_1 x_16) Z_1)))
(assert (forall ((x_17 Nat_1) (x_18 Nat_1))
	(=> (diseqNat_0 x_17 x_18)
	    (diseqNat_0 (S_1 x_17) (S_1 x_18)))))
(declare-fun add_0 (Nat_1 Nat_1 Nat_1) Bool)
(declare-fun minus_0 (Nat_1 Nat_1 Nat_1) Bool)
(declare-fun le_0 (Nat_1 Nat_1) Bool)
(declare-fun ge_0 (Nat_1 Nat_1) Bool)
(declare-fun lt_0 (Nat_1 Nat_1) Bool)
(declare-fun gt_0 (Nat_1 Nat_1) Bool)
(declare-fun mult_0 (Nat_1 Nat_1 Nat_1) Bool)
(declare-fun div_0 (Nat_1 Nat_1 Nat_1) Bool)
(declare-fun mod_0 (Nat_1 Nat_1 Nat_1) Bool)
(assert (forall ((y_1 Nat_1))
	(add_0 y_1 Z_1 y_1)))
(assert (forall ((x_10 Nat_1) (y_1 Nat_1) (r_0 Nat_1))
	(=> (add_0 r_0 x_10 y_1)
	    (add_0 (S_1 r_0) (S_1 x_10) y_1))))
(assert (forall ((y_1 Nat_1))
	(minus_0 Z_1 Z_1 y_1)))
(assert (forall ((x_10 Nat_1) (y_1 Nat_1) (r_0 Nat_1))
	(=> (minus_0 r_0 x_10 y_1)
	    (minus_0 (S_1 r_0) (S_1 x_10) y_1))))
(assert (forall ((y_1 Nat_1))
	(le_0 Z_1 y_1)))
(assert (forall ((x_10 Nat_1) (y_1 Nat_1))
	(=> (le_0 x_10 y_1)
	    (le_0 (S_1 x_10) (S_1 y_1)))))
(assert (forall ((y_1 Nat_1))
	(ge_0 y_1 Z_1)))
(assert (forall ((x_10 Nat_1) (y_1 Nat_1))
	(=> (ge_0 x_10 y_1)
	    (ge_0 (S_1 x_10) (S_1 y_1)))))
(assert (forall ((y_1 Nat_1))
	(lt_0 Z_1 (S_1 y_1))))
(assert (forall ((x_10 Nat_1) (y_1 Nat_1))
	(=> (lt_0 x_10 y_1)
	    (lt_0 (S_1 x_10) (S_1 y_1)))))
(assert (forall ((y_1 Nat_1))
	(gt_0 (S_1 y_1) Z_1)))
(assert (forall ((x_10 Nat_1) (y_1 Nat_1))
	(=> (gt_0 x_10 y_1)
	    (gt_0 (S_1 x_10) (S_1 y_1)))))
(assert (forall ((y_1 Nat_1))
	(mult_0 Z_1 Z_1 y_1)))
(assert (forall ((x_10 Nat_1) (y_1 Nat_1) (r_0 Nat_1) (z_1 Nat_1))
	(=>	(and (mult_0 r_0 x_10 y_1)
			(add_0 z_1 r_0 y_1))
		(mult_0 z_1 (S_1 x_10) y_1))))
(assert (forall ((x_10 Nat_1) (y_1 Nat_1))
	(=> (lt_0 x_10 y_1)
	    (div_0 Z_1 x_10 y_1))))
(assert (forall ((x_10 Nat_1) (y_1 Nat_1) (r_0 Nat_1) (z_1 Nat_1))
	(=>	(and (ge_0 x_10 y_1)
			(minus_0 z_1 x_10 y_1)
			(div_0 r_0 z_1 y_1))
		(div_0 (S_1 r_0) x_10 y_1))))
(assert (forall ((x_10 Nat_1) (y_1 Nat_1))
	(=> (lt_0 x_10 y_1)
	    (mod_0 x_10 x_10 y_1))))
(assert (forall ((x_10 Nat_1) (y_1 Nat_1) (r_0 Nat_1) (z_1 Nat_1))
	(=>	(and (ge_0 x_10 y_1)
			(minus_0 z_1 x_10 y_1)
			(mod_0 r_0 z_1 y_1))
		(mod_0 r_0 x_10 y_1))))
(declare-datatypes ((Nat_0 0)) (((S_0 (projS_0 Nat_0)) (Z_0 ))))
(declare-fun diseqNat_1 (Nat_0 Nat_0) Bool)
(declare-fun projS_1 (Nat_0 Nat_0) Bool)
(declare-fun isS_1 (Nat_0) Bool)
(declare-fun isZ_1 (Nat_0) Bool)
(assert (forall ((x_20 Nat_0) (x_19 Nat_0))
	(=> (= x_20 (S_0 x_19))
	    (projS_1 x_19 x_20))))
(assert (forall ((x_22 Nat_0))
	(isS_1 (S_0 x_22))))
(assert (isZ_1 Z_0))
(assert (forall ((x_23 Nat_0))
	(diseqNat_1 (S_0 x_23) Z_0)))
(assert (forall ((x_24 Nat_0))
	(diseqNat_1 Z_0 (S_0 x_24))))
(assert (forall ((x_25 Nat_0) (x_26 Nat_0))
	(=> (diseqNat_1 x_25 x_26)
	    (diseqNat_1 (S_0 x_25) (S_0 x_26)))))
(declare-datatypes ((list_0 0)) (((nil_0 ) (cons_0 (head_0 Nat_0) (tail_0 list_0)))))
(declare-fun diseqlist_0 (list_0 list_0) Bool)
(declare-fun head_1 (Nat_0 list_0) Bool)
(declare-fun tail_1 (list_0 list_0) Bool)
(declare-fun isnil_0 (list_0) Bool)
(declare-fun iscons_0 (list_0) Bool)
(assert (forall ((x_30 list_0) (x_28 Nat_0) (x_29 list_0))
	(=> (= x_30 (cons_0 x_28 x_29))
	    (head_1 x_28 x_30))))
(assert (forall ((x_30 list_0) (x_28 Nat_0) (x_29 list_0))
	(=> (= x_30 (cons_0 x_28 x_29))
	    (tail_1 x_29 x_30))))
(assert (isnil_0 nil_0))
(assert (forall ((x_31 Nat_0) (x_32 list_0))
	(iscons_0 (cons_0 x_31 x_32))))
(assert (forall ((x_33 Nat_0) (x_34 list_0))
	(diseqlist_0 nil_0 (cons_0 x_33 x_34))))
(assert (forall ((x_35 Nat_0) (x_36 list_0))
	(diseqlist_0 (cons_0 x_35 x_36) nil_0)))
(assert (forall ((x_37 Nat_0) (x_38 list_0) (x_39 Nat_0) (x_40 list_0))
	(=> (diseqNat_1 x_37 x_39)
	    (diseqlist_0 (cons_0 x_37 x_38) (cons_0 x_39 x_40)))))
(assert (forall ((x_37 Nat_0) (x_38 list_0) (x_39 Nat_0) (x_40 list_0))
	(=> (diseqlist_0 x_38 x_40)
	    (diseqlist_0 (cons_0 x_37 x_38) (cons_0 x_39 x_40)))))
(declare-fun drop_0 (list_0 Nat_0 list_0) Bool)
(assert (forall ((x_0 Nat_0) (y_0 list_0) (x_3 list_0))
	(=>	(and (= x_3 y_0)
			(= x_0 Z_0))
		(drop_0 x_3 x_0 y_0))))
(assert (forall ((x_0 Nat_0) (y_0 list_0) (z_0 Nat_0) (x_1 Nat_0) (x_2 list_0) (x_4 list_0) (x_5 list_0))
	(=>	(and (= x_4 x_5)
			(drop_0 x_5 z_0 x_2)
			(= x_0 (S_0 z_0))
			(= y_0 (cons_0 x_1 x_2)))
		(drop_0 x_4 x_0 y_0))))
(assert (forall ((x_0 Nat_0) (y_0 list_0) (z_0 Nat_0) (x_6 list_0))
	(=>	(and (= x_6 nil_0)
			(= x_0 (S_0 z_0))
			(= y_0 nil_0))
		(drop_0 x_6 x_0 y_0))))
(assert (forall ((n_0 Nat_0) (xs_0 list_0) (x_7 list_0) (x_8 list_0) (x_9 list_0))
	(=>	(and (diseqlist_0 x_8 x_9)
			(drop_0 x_7 n_0 xs_0)
			(drop_0 x_8 n_0 x_7)
			(drop_0 x_9 n_0 xs_0))
		false)))
(check-sat)
